RT is False
Default write of storage_offers_DA.csv just to have a file (but constraint should be inactive)
Reading model...
...model read.
creating competitive generators file...
...competitive generators recorded.
Loading data...
.. day-ahead data with real-time VRE data read.
Compiling instance...
...instance created.
Creating Offer Mitigation (model will solve as dispatch if TRUE)...
Solving...

Welcome to IBM(R) ILOG(R) CPLEX(R) Interactive Optimizer 12.9.0.0
  with Simplex, Mixed Integer & Barrier Optimizers
5725-A06 5725-A29 5724-Y48 5724-Y49 5724-Y54 5724-Y55 5655-Y21
Copyright IBM Corp. 1988, 2019.  All Rights Reserved.

Type 'help' for a list of available commands.
Type 'help' followed by a command name for more
information on commands.

CPLEX> Logfile 'cplex.log' closed.
Logfile 'C:\Users\Luke\Desktop\test919\logs\tmpva40lse8.cplex.log' open.
CPLEX> New value for parallel optimization mode: -1
CPLEX> New value for mixed integer optimality gap tolerance: 0.01
CPLEX> New value for integrality tolerance: 1e-09
CPLEX> New value for feasibility tolerance: 0.01
CPLEX> New value for deterministic time limit in ticks: 75000
CPLEX> Problem 'C:\Users\Luke\Desktop\test919\logs\tmp6r78vzun.pyomo.lp' read.
Read time = 0.05 sec. (3.04 ticks)
CPLEX> Problem name         : C:\Users\Luke\Desktop\test919\logs\tmp6r78vzun.pyomo.lp
Objective sense      : Minimize
Variables            :   26081  [Nneg: 1,  Box: 21616,  Free: 4464]
Objective nonzeros   :    2496
Linear constraints   :   27515  [Less: 14006,  Greater: 4416,  Equal: 9093]
  Nonzeros           :   89219
  RHS nonzeros       :   12271

Variables            : Min LB: -5000.000        Max UB: 1000000.       
Objective nonzeros   : Min   : 15.73158         Max   : 124.0997       
Linear constraints   :
  Nonzeros           : Min   : 0.8500000        Max   : 3000.000       
  RHS nonzeros       : Min   : 0.3833333        Max   : 5000.000       
CPLEX> CPXPARAM_Parallel                                -1
CPXPARAM_Simplex_Tolerances_Feasibility          0.01
CPXPARAM_DetTimeLimit                            75000
CPXPARAM_MIP_Tolerances_MIPGap                   0.01
CPXPARAM_MIP_Tolerances_Integrality              1.0000000000000001e-09
Parallel mode: opportunistic, using up to 12 threads for concurrent optimization.
Tried aggregator 1 time.
LP Presolve eliminated 21377 rows and 15487 columns.
Aggregator did 746 substitutions.
Reduced LP has 5392 rows, 9848 columns, and 31788 nonzeros.
Presolve time = 0.05 sec. (30.20 ticks)
Symmetry aggregator did 5563 additional substitutions.

Iteration log . . .
Iteration:     1   Dual objective     =             0.000000
Perturbation started.
Iteration:   101   Dual objective     =             0.000000
Iteration:   334   Dual objective     =             1.385816
Iteration:   609   Dual objective     =             1.964253
Iteration:   879   Dual objective     =             2.103342
Iteration:  1083   Dual objective     =             2.215610
Iteration:  1359   Dual objective     =             2.266046
Iteration:  1610   Dual objective     =             2.295628
Iteration:  1830   Dual objective     =          9748.243014
Iteration:  2043   Dual objective     =         47442.480201
Iteration:  2251   Dual objective     =        105286.331808
Iteration:  2442   Dual objective     =        169102.080777
Iteration:  2680   Dual objective     =        197132.723655
Iteration:  3089   Dual objective     =        200926.150406
Removing perturbation.
Dual superbasis not built.
Using devex.

Primal simplex solved model.


Primal simplex - Optimal:  Objective =  2.0092458139e+05
Solution time =    0.13 sec.  Iterations = 1711 (1139)
Deterministic time = 81.36 ticks  (650.85 ticks/sec)

CPLEX> Solution written to file 'C:\Users\Luke\Desktop\test919\logs\tmpoj442k50.cplex.sol'.
CPLEX> Exporting results... 
...storage offer mitigation file created
Converting model to MPEC...
...converted
NOTE: initial MIP solve with only storage competitive to get feasible solution
Solving...

Welcome to IBM(R) ILOG(R) CPLEX(R) Interactive Optimizer 12.9.0.0
  with Simplex, Mixed Integer & Barrier Optimizers
5725-A06 5725-A29 5724-Y48 5724-Y49 5724-Y54 5724-Y55 5655-Y21
Copyright IBM Corp. 1988, 2019.  All Rights Reserved.

Type 'help' for a list of available commands.
Type 'help' followed by a command name for more
information on commands.

CPLEX> Logfile 'cplex.log' closed.
Logfile 'C:\Users\Luke\Desktop\test919\logs\tmpiox5b755.cplex.log' open.
CPLEX> New value for parallel optimization mode: -1
CPLEX> New value for mixed integer optimality gap tolerance: 0.01
CPLEX> New value for integrality tolerance: 1e-09
CPLEX> New value for feasibility tolerance: 0.01
CPLEX> New value for deterministic time limit in ticks: 75000
CPLEX> Problem 'C:\Users\Luke\Desktop\test919\logs\tmp2_f0hi1k.pyomo.lp' read.
Read time = 0.22 sec. (14.78 ticks)
CPLEX> Problem name         : C:\Users\Luke\Desktop\test919\logs\tmp2_f0hi1k.pyomo.lp
Objective sense      : Maximize
Variables            :   53805  [Nneg: 1,  Box: 22000,  Free: 4464,
                                 Binary: 27340]
Objective nonzeros   :    9029
Linear constraints   :  123205  [Less: 41346,  Greater: 59096,  Equal: 22763]
  Nonzeros           :  291753
  RHS nonzeros       :   67425

Variables            : Min LB: -5000.000        Max UB: 1000000.       
Objective nonzeros   : Min   : 0.3833333        Max   : 2500.000       
Linear constraints   :
  Nonzeros           : Min   : 0.3833333        Max   : 1000000.       
  RHS nonzeros       : Min   : 0.3833333        Max   : 1000000.       
CPLEX> CPXPARAM_Parallel                                -1
CPXPARAM_Simplex_Tolerances_Feasibility          0.01
CPXPARAM_DetTimeLimit                            75000
CPXPARAM_MIP_Tolerances_MIPGap                   0.01
CPXPARAM_MIP_Tolerances_Integrality              1.0000000000000001e-09
Tried aggregator 3 times.
MIP Presolve eliminated 88623 rows and 18947 columns.
MIP Presolve added 3378 rows and 0 columns.
MIP Presolve modified 24815 coefficients.
Aggregator did 12977 substitutions.
Reduced MIP has 24983 rows, 21325 columns, and 71249 nonzeros.
Reduced MIP has 8426 binaries, 0 generals, 0 SOSs, and 0 indicators.
Presolve time = 0.23 sec. (173.34 ticks)
Probing fixed 404 vars, tightened 2883 bounds.
Probing time = 1.53 sec. (890.72 ticks)
Tried aggregator 2 times.
MIP Presolve eliminated 917 rows and 810 columns.
MIP Presolve modified 2213 coefficients.
Aggregator did 41 substitutions.
Reduced MIP has 24025 rows, 20474 columns, and 68472 nonzeros.
Reduced MIP has 8022 binaries, 0 generals, 0 SOSs, and 0 indicators.
Presolve time = 0.09 sec. (69.54 ticks)
Probing time = 0.05 sec. (16.35 ticks)
Clique table members: 6424.
MIP emphasis: balance optimality and feasibility.
MIP search method: dynamic search.
Parallel mode: opportunistic, using up to 12 threads.
Root relaxation solution time = 0.42 sec. (325.13 ticks)

        Nodes                                         Cuts/
   Node  Left     Objective  IInf  Best Integer    Best Bound    ItCnt     Gap

      0     0      791.2490  1652                    791.2490     7424         
      0     0      777.6401     6                    Cuts: 27     7432         
      0     0      775.4203     8                     Cuts: 7     7438         
      0     0      773.2005     9                     Cuts: 6     7444         
      0     0      773.2005    10                 Flowcuts: 2     7445         
      0    13      349.1631     4                     Cuts: 2     7518         
Elapsed time = 10.34 sec. (5098.24 ticks, tree = 0.02 MB, solutions = 0)
    144    67      550.8730     3                    753.7470     7795         
*   204   116      integral     0       76.5595      753.7470     8233  884.52%
    341   135    infeasible             76.5595      753.7470     8530  884.52%
*   467   119      integral     0      510.3859      753.7470    10257   47.68%
    582    72      514.0424     2      510.3859      753.7470    10425   47.68%
    688    41        cutoff            510.3859      753.7470    10732   47.68%
    784    35      550.8730     1      510.3859      753.7470    11235   47.68%
    860    28        cutoff            510.3859      753.7470    10960   47.68%
    928    27      622.5627     1      510.3859      753.7470    11097   47.68%
   1146    65        cutoff            510.3859      695.8598    11668   36.34%
Elapsed time = 18.55 sec. (8091.39 ticks, tree = 0.25 MB, solutions = 4)
   1314    66      622.5627     1      510.3859      695.8598    11668   36.34%
   1461    74      586.8600     1      510.3859      695.8598    11855   36.34%
   1585    72      551.1573     1      510.3859      695.8598    11924   36.34%
   1703    71      523.3536     1      510.3859      695.8598    11918   36.34%
   1803    74      622.5627     1      510.3859      695.8598    11986   36.34%
   1906    74      551.1573     1      510.3859      695.8598    11966   36.34%
   2000    77      523.3536     3      510.3859      695.8598    12124   36.34%
   2080    78      523.3536     1      510.3859      695.8598    12128   36.34%
*  2169    84      integral     0      628.1031      695.8598    12270   10.79%
   2178    83      550.8730     3      628.1031      695.8598    12162   10.79%
   2283    49        cutoff            628.1031      693.9680    12331   10.49%
Elapsed time = 34.86 sec. (17756.75 ticks, tree = 0.08 MB, solutions = 6)
   2390    50      690.1153     1      628.1031      693.9680    12342   10.49%
   2509    23      690.1153     1      628.1031      693.9680    12395   10.49%
*  2576+   12                          690.1153      693.9680             0.56%
   2594    22        cutoff            690.1153      693.9680    12402    0.56%
   2664     6        cutoff            690.1153      693.9680    12523    0.56%
   2720    14        cutoff            690.1153      693.9680    12538    0.56%

Clique cuts applied:  3
Cover cuts applied:  2
Implied bound cuts applied:  12
Flow cuts applied:  16
Mixed integer rounding cuts applied:  4
Gomory fractional cuts applied:  2

Root node processing (before b&c):
  Real time             =    9.95 sec. (5074.84 ticks)
Parallel b&c, 12 threads:
  Real time             =   28.59 sec. (18232.00 ticks)
  Sync time (average)   =    1.64 sec.
  Wait time (average)   =    0.00 sec.
                          ------------
Total (root+branch&cut) =   38.55 sec. (23306.84 ticks)

Solution pool: 6 solutions saved.

MIP - Integer optimal, tolerance (0.01/1e-06):  Objective =  6.9011531445e+02
Current MIP best bound =  6.9396801468e+02 (gap = 3.8527, 0.56%)
Solution time =   38.55 sec.  Iterations = 12826  Nodes = 2748 (12)
Deterministic time = 23306.99 ticks  (604.64 ticks/sec)

CPLEX> Incumbent solution written to file 'C:\Users\Luke\Desktop\test919\logs\tmpimpe2w9w.cplex.sol'.
CPLEX> NOTE: no warmstart specified for MIP iteration, default behavior is true
NOTE: resolving with all competitive generators using storage-only solution to warmstart
Solving...

Welcome to IBM(R) ILOG(R) CPLEX(R) Interactive Optimizer 12.9.0.0
  with Simplex, Mixed Integer & Barrier Optimizers
5725-A06 5725-A29 5724-Y48 5724-Y49 5724-Y54 5724-Y55 5655-Y21
Copyright IBM Corp. 1988, 2019.  All Rights Reserved.

Type 'help' for a list of available commands.
Type 'help' followed by a command name for more
information on commands.

CPLEX> Logfile 'cplex.log' closed.
Logfile 'C:\Users\Luke\Desktop\test919\logs\tmptgq29wdq.cplex.log' open.
CPLEX> New value for parallel optimization mode: -1
CPLEX> New value for mixed integer optimality gap tolerance: 0.01
CPLEX> New value for integrality tolerance: 1e-09
CPLEX> New value for feasibility tolerance: 0.01
CPLEX> New value for deterministic time limit in ticks: 75000
CPLEX> Problem 'C:\Users\Luke\Desktop\test919\logs\tmpr4r803bg.pyomo.lp' read.
Read time = 0.20 sec. (14.81 ticks)
CPLEX> MIP start file 'C:\Users\Luke\Desktop\test919\logs\tmpdpwnhr7s.cplex.mst' read.
CPLEX> Problem name         : C:\Users\Luke\Desktop\test919\logs\tmpr4r803bg.pyomo.lp
Objective sense      : Maximize
Variables            :   54525  [Nneg: 1,  Box: 22720,  Free: 4464,
                                 Binary: 27340]
Objective nonzeros   :    9725
Linear constraints   :  123205  [Less: 41346,  Greater: 59096,  Equal: 22763]
  Nonzeros           :  291753
  RHS nonzeros       :   67425

Variables            : Min LB: -5000.000        Max UB: 1000000.       
Objective nonzeros   : Min   : 0.3833333        Max   : 2500.000       
Linear constraints   :
  Nonzeros           : Min   : 0.3833333        Max   : 1000000.       
  RHS nonzeros       : Min   : 0.3833333        Max   : 1000000.       
CPLEX> CPXPARAM_Parallel                                -1
CPXPARAM_Simplex_Tolerances_Feasibility          0.01
CPXPARAM_DetTimeLimit                            75000
CPXPARAM_MIP_Tolerances_MIPGap                   0.01
CPXPARAM_MIP_Tolerances_Integrality              1.0000000000000001e-09
Warning:  No solution found from 1 MIP starts.
Retaining values of one MIP start for possible repair.
Tried aggregator 3 times.
MIP Presolve eliminated 88623 rows and 19667 columns.
MIP Presolve added 3378 rows and 0 columns.
MIP Presolve modified 24815 coefficients.
Aggregator did 12977 substitutions.
Reduced MIP has 24983 rows, 21325 columns, and 71249 nonzeros.
Reduced MIP has 8426 binaries, 0 generals, 0 SOSs, and 0 indicators.
Presolve time = 0.25 sec. (173.70 ticks)
Probing fixed 404 vars, tightened 2883 bounds.
Probing time = 1.55 sec. (890.72 ticks)
Tried aggregator 2 times.
MIP Presolve eliminated 917 rows and 810 columns.
MIP Presolve modified 2213 coefficients.
Aggregator did 41 substitutions.
Reduced MIP has 24025 rows, 20474 columns, and 68472 nonzeros.
Reduced MIP has 8022 binaries, 0 generals, 0 SOSs, and 0 indicators.
Presolve time = 0.09 sec. (69.55 ticks)
Probing time = 0.05 sec. (16.35 ticks)
Clique table members: 6424.
MIP emphasis: balance optimality and feasibility.
MIP search method: dynamic search.
Parallel mode: opportunistic, using up to 12 threads.
Root relaxation solution time = 0.42 sec. (309.16 ticks)

        Nodes                                         Cuts/
   Node  Left     Objective  IInf  Best Integer    Best Bound    ItCnt     Gap

      0     0   178955.1033  1811                 178955.1033     7113         
      0     0   174550.9353   602                  Cuts: 1001     7664         
      0     0   173893.4616   484                   Cuts: 413     7876         
      0     0   173560.7841   456                   Cuts: 239     8003         
      0     0   173494.6858   426                   Cuts: 155     8079         
      0     0   173487.1481   406                   Cuts: 117     8121         
      0     0   173480.6648   395                    Cuts: 86     8156         
      0     0   173474.8606   382                    Cuts: 74     8178         
      0     0   173471.4167   366                    Cuts: 63     8197         
      0     0   171100.4931   336                    Cuts: 65     8266         
      0     0   170713.0404   330                   Cuts: 100     8300         
      0     0   170661.5328   332                    Cuts: 60     8313         
      0     0   170615.8840   331                    Cuts: 54     8323         
      0     0   170615.8840   327                    Cuts: 52     8330         
      0     0   169689.9805   333                    Cuts: 58     8376         
      0     0   169683.6708   337                    Cuts: 59     8401         
Repair heuristic found nothing.
      0     7    infeasible                       138292.0875     9381         
Elapsed time = 16.55 sec. (7329.63 ticks, tree = 0.02 MB, solutions = 0)
    118    30    63603.8999   265                 138292.0875    11262         
    336    31    61984.0070   236                 138292.0875    11425         
    518    91    49059.4605   202                 138292.0875    12597         
    691   193    infeasible                       138292.0875    17884         
    868   294    13553.8131   182                 138292.0875    18999         
   1096   343     3435.6151   156                 138292.0875    19943         
   1354   621    -7806.5651   113                 138292.0875    23836         
   1620   848    -8982.8147   145                 138292.0875    27491         
   1855   793     2016.2520   163                 138292.0875    27251         
*  2521+  529                        19029.0694   138292.0875           626.74%
Elapsed time = 28.56 sec. (10099.18 ticks, tree = 2.34 MB, solutions = 2)
   3639  1362    27327.5998   139    19029.0694    66381.9448    38230  248.84%
*  4379  1382      integral     0    27537.8018    66381.9448    37744  141.06%
   4433  1332        cutoff          27537.8018    48294.5511    49443   75.38%
   5016   414    32707.8680   116    27537.8018    46847.2606    54685   70.12%
   5457   752    27753.3112    88    27537.8018    46847.2606    59187   70.12%
   6317  1122    27538.3924    99    27537.8018    45958.4446    63164   66.89%
   7340  2004    36145.6312   128    27537.8018    45186.0673    73215   64.09%
   8404  2955    41128.2224   107    27537.8018    45139.6261    82582   63.92%
   9347  3289    30364.2372    75    31463.1131    44787.3583    84987   42.35%
  10294  3103    41122.7888   129    31463.1131    44372.4846    92516   41.03%
Elapsed time = 70.59 sec. (23107.91 ticks, tree = 207.74 MB, solutions = 5)
  11233  4087    43369.4142   116    31463.1131    43865.9964   101494   39.42%
  12389  4682    34163.2552    88    31463.1131    43803.8809   107033   39.22%
  12915  5579    41029.9280   102    31463.1131    43803.3854   115595   39.22%
  13812  5845    40038.0816    88    31463.1131    43803.3854   117782   39.22%
  14962  5987    40694.8950   105    31463.1131    43629.4042   118277   38.67%
  16280  7414    37458.1750    84    31463.1131    43544.4251   129691   38.40%
  17466  8288    42972.7776   109    31463.1131    43448.6570   136674   38.09%
  18608  9374    31553.5417    63    31463.1131    43369.4142   146381   37.84%
  19844 10099    41252.3068   112    31463.1131    43335.5791   153825   37.73%
  21162 10280    35183.0627    77    31463.1131    43312.9329   154938   37.66%
Elapsed time = 111.36 sec. (32651.04 ticks, tree = 347.33 MB, solutions = 5)
  22453 11441    36705.2649    74    31463.1131    43312.9329   164488   37.66%
  23631 12123    37192.6988    74    31463.1131    43312.9329   171091   37.66%
  24725 14105    37901.1443    77    31463.1131    43306.8584   188921   37.64%
  25902 13916    36634.3607    90    31463.1131    43306.8584   187518   37.64%
  27114 14622        cutoff          31463.1131    43306.8584   195496   37.64%
  28336 15653    40940.0065    93    31463.1131    43306.8584   206425   37.64%
  29515 16000        cutoff          31463.1131    43306.8584   209315   37.64%
  30635 16092    37543.7819    91    31463.1131    43306.8584   210533   37.64%
  31776 16181    36672.3962    83    31463.1131    43306.8584   211471   37.64%
  32669 16260    35941.7813    74    31463.1131    43306.8584   212276   37.64%
Elapsed time = 149.19 sec. (42193.04 ticks, tree = 397.38 MB, solutions = 5)
  33489 16485    42887.3829   110    31463.1131    43306.8584   214518   37.64%
  34364 16556    42392.9427   107    31463.1131    43306.8584   215492   37.64%
  35316 18096    36633.2216    82    31463.1131    43306.8584   235374   37.64%
  35998 16170    31880.9562    13    31463.1131    43306.8584   211045   37.64%
  36848 19100    38638.9791    85    31463.1131    43306.8584   244117   37.64%
  37793 17146    36589.9944   109    31463.1131    43306.8584   222396   37.64%
  38600 17217    36938.1559    75    31463.1131    43306.8584   223186   37.64%
  39548 17909    infeasible          31463.1131    43306.8584   232043   37.64%
  40573 19377    32627.7313    71    31463.1131    43306.8584   246191   37.64%
  41578 18604        cutoff          31463.1131    43306.8584   240926   37.64%
Elapsed time = 182.70 sec. (51737.72 ticks, tree = 417.70 MB, solutions = 5)
  42518 18111    36601.7713    78    31463.1131    43306.8584   234657   37.64%
  43432 18187    37160.7591    75    31463.1131    43306.8584   235432   37.64%
  44324 21126    40385.2728    94    31463.1131    43306.8584   264268   37.64%
  45012 21956    39658.4008    85    31463.1131    43306.8584   274520   37.64%
  45621 20028        cutoff          31463.1131    43306.8584   254891   37.64%
  46070 20123    35214.6782    81    31463.1131    43306.8584   255867   37.64%
  46530 22226        cutoff          31463.1131    43306.8584   275454   37.64%
  47021 22312        cutoff          31463.1131    43306.8584   275724   37.64%
  47229 22390        cutoff          31463.1131    43306.8584   276335   37.64%
  47438 20731    37023.3075    87    31463.1131    43306.8584   260774   37.64%
Elapsed time = 200.08 sec. (61293.21 ticks, tree = 437.89 MB, solutions = 5)
  47655 20819    37849.1274    77    31463.1131    43306.8584   262120   37.64%
  47871 22626    39746.3747    91    31463.1131    43306.8584   278004   37.64%
  48074 22703    33405.6947    85    31463.1131    43306.8584   278526   37.64%
  48283 21045    33072.8114    63    31463.1131    43306.8584   264179   37.64%
  48502 21149    31861.1944    41    31463.1131    43306.8584   264501   37.64%
  48677 21214    32493.6990    64    31463.1131    43306.8584   264703   37.64%
  48860 21275    31729.2210    12    31463.1131    43306.8584   264779   37.64%
  48984 23022    38407.3304    74    31463.1131    43306.8584   283501   37.64%
  49093 23091    31939.2917    88    31463.1131    43306.8584   284493   37.64%
  49197 23164    33240.9948    88    31463.1131    43306.8584   285017   37.64%
Elapsed time = 208.81 sec. (70881.00 ticks, tree = 459.40 MB, solutions = 5)
  49314 23241    38261.9167   104    31463.1131    43306.8584   285653   37.64%
  49419 23283    36616.9299    85    31463.1131    43306.8584   286909   37.64%
  49516 23357    33010.7969    99    31463.1131    43306.8584   288037   37.64%
  49570 20754        cutoff          31463.1131    43306.8584   261477   37.64%

Clique cuts applied:  5
Cover cuts applied:  29
Implied bound cuts applied:  12
Flow cuts applied:  356
Mixed integer rounding cuts applied:  33
Zero-half cuts applied:  1
Gomory fractional cuts applied:  84

Root node processing (before b&c):
  Real time             =   16.11 sec. (7321.54 ticks)
Parallel b&c, 12 threads:
  Real time             =  197.11 sec. (68329.57 ticks)
  Sync time (average)   =    0.95 sec.
  Wait time (average)   =    0.04 sec.
                          ------------
Total (root+branch&cut) =  213.22 sec. (75651.10 ticks)

Solution pool: 5 solutions saved.

MIP - Deterministic time limit exceeded, integer feasible:  Objective =  3.1463113125e+04
Current MIP best bound =  4.3306858438e+04 (gap = 11843.7, 37.64%)
Solution time =  213.22 sec.  Iterations = 380003  Nodes = 49573 (32420)
Deterministic time = 75651.26 ticks  (354.81 ticks/sec)

CPLEX> Incumbent solution written to file 'C:\Users\Luke\Desktop\test919\logs\tmpyz1b88kk.cplex.sol'.
CPLEX> Exporting results... 
